50
1 70 47
2 44 95
3 74 63
4 55 68
5 39 76
6 8 69
7 36 24
8 39 15
9 15 9
10 59 42
11 97 99
12 98 34
13 98 94
14 57 61
15 14 4
16 84 68
17 37 25
18 4 7
19 29 87
20 49 68
21 14 85
22 51 66
23 77 47
24 31 35
25 5 5
26 55 55
27 87 6
28 54 44
29 29 70
30 14 11
31 41 9
32 21 71
33 17 16
34 14 88
35 44 28
36 92 61
37 24 88
38 5 29
39 83 37
40 5 48
41 13 34
42 31 22
43 99 51
44 62 94
45 79 80
46 73 34
47 40 73
48 74 83
49 85 43
50 44 54
